%-----------------------------------------------------------------------------%
% Dual Arm Multi Capacity Multi Tool Scheduling / Routing
% Assembly Configuration
% Auto Generated by python script, authored by Johan Ludde Wessen 
%-----------------------------------------------------------------------------%


task_durations = [|29, 30, 24, 23, 26, 27, 29, 24, 27, 27, 31, 27, 48, 58, 54, 46, 48, 54, 56, 44, 63, 42, 54, 56, 28, 33, 30, 30, 31, 30, 28, 34, 35, 29,  6,  7,  4,  7,  7,  5,  7,  5,  7,  5,  6
                  |24, 35, 30, 21, 32, 23, 28, 21, 25, 27, 33, 25, 52, 60, 62, 43, 47, 54, 47, 42, 55, 48, 47, 62, 36, 32, 29, 34, 38, 25, 25, 34, 32, 26,  6,  8,  6,  8,  5,  6,  5,  6,  7,  7,  6
                  |];


TRAY_TASKS = 1..10;
CAMERA_TASKS = 25..34;
OUTPUT_TASKS = { 24 };


empty_gripper_tasks = 35..45;


gripper_pick_tasks_orders = [|11, 23, -1
|12, 24, -1
|];

suction_pick_tasks_orders = [|1, 25, 13, -1
|2, 26, 14, -1
|3, 27, 15, -1
|4, 28, 16, -1
|5, 29, 17, -1
|6, 30, 18, -1
|7, 31, 19, -1
|8, 32, 20, -1
|9, 33, 21, -1
|10, 34, 22, -1
|];

fixture_task_orders = [|13, 35, 14, 36, 15, 37, 16, 38, 17, 39, 18, 40, 11, -1
|19, 41, 20, 42, 21, 43, 22, 44, 23, 45, 12, -1, -1, -1
|];

